# Objective value = 58
WA1n 0
WA1p 0
WA2n 0
WA2p 1
WB1n 0
WB1p 0
WB2n 0
WB2p 1
WC1n 1
WC1p 0
WD1n 1
WD1p 0
WD2n 1
WD2p 0
WE1n 0
WE1p 1
WE2n 0
WE2p 1
WF1n 4
WF1p 0
WG1n 5
WG1p 0
WG2n 1
WG2p 0
WH1n 9
WH1p 0
WH2n 1
WH2p 0
WI1n 9
WI1p 0
WI2n 1
WI2p 0
WJ1n 0
WJ1p 9
WJ2n 0
WJ2p 1
WT1n 0
WT1p 3
5 7
a 0
b 1
c 0
d 1
e 0
f 0
g 0
h 1
i 1
j 0
k 0
l 0
m 0
n 0
o 0
p 0
q 1
r 1
s 1
